p cnf 7 14 ------> p cnf 7 14

c 2 b(1) ------> c 2 b(1)
c 3 b(2) ------> c 3 b(2)
c 4 a(1) ------> c 4 a(1)
c 5 a(2) ------> c 5 a(2)
2 6 0    ------> 2 6 0
-2 -6 0  ------> -2 -6 0
3 7 0 ------> 3 7 0
-3 -7 0 ------> -3 -7 0
4 -2 0 ------> 4 -2 0
-4 2 0 ------> -4 2 0
5 -3 0 ------> 5 -3 0
-5 3 0 ------> -5 3 0
6 2 0 ------> 6 2 0
-6 -2 0 ------> -6 -2 0
7 3 0 ------> 7 3 0
-7 -3 0 ------> -7 -3 0
-1 0 ------> -1 0
-1 0 ------> -1 0
p cnf 13 30 ------> p cnf 13 30

c 2 d(1) ------> c 6 d(1)
c 3 d(2) ------> c 7 d(2)
c 4 a(1) ------> c 4 a(1)
c 5 a(2) ------> c 5 a(2)
c 6 c(1,1) ------> c 8 c(1,1)
c 7 c(2,1) ------> c 9 c(2,1)
c 8 c(1,2) ------> c 10 c(1,2)
c 9 c(2,2) ------> c 11 c(2,2)
2 10 0 ------> 6 10 0
-2 -10 0 ------> -6 -10 0
3 11 0 ------> 7 11 0
-3 -11 0 ------> -7 -11 0
4 12 0 ------> 4 12 0
-4 -12 0 ------> -4 -12 0
5 13 0 ------> 5 13 0
-5 -13 0 ------> -5 -13 0
6 -2 -4 0 ------> 8 -6 -4 0
-6 2 0 ------> -8 6 0
-6 4 0 ------> -8 4 0
7 -2 -5 0 ------> 9 -6 -5 0
-7 2 0 ------> -9 6 0
-7 5 0 ------> -9 5 0
8 -3 -4 0 ------> 10 -7 -4 0
-8 3 0 ------> -10 7 0
-8 4 0 ------> -10 4 0
9 -3 -5 0 ------> 11 -7 -5 0
-9 3 0 ------> -11 7 0
-9 5 0 ------> -11 5 0
10 2 0 ------> 10 6 0
-10 -2 0 ------> -10 -6 0
11 3 0 ------> 11 7 0
-11 -3 0 ------> -11 -7 0
12 4 0 ------> 12 4 0
-12 -4 0 ------> -12 -4 0
13 5 0 ------> 13 5 0
-13 -5 0 ------> -13 -5 0
-1 0 ------> -1 0
-1 0 ------> -1 0
p cnf 13 29 ------> p cnf 13 29

c 2 a(1) ------> c 4 a(1)
c 3 a(2) ------> c 5 a(2)
c 4 c(1,1) ------> c 8 c(1,1)
c 5 c(2,1) ------> c 9 c(2,1)
c 6 c(1,2) ------> c 10 c(1,2)
c 7 c(2,2) ------> c 11 c(2,2)
-4 -2 -2 0 ------> -8 -4 -4 0
-6 -3 -2 0 ------> -10 -5 -4 0
-5 -2 -3 0 ------> -9 -4 -5 0
-7 -3 -3 0 ------> -11 -5 -5 0
2 8 0 ------> 4 8 0
-2 -8 0 ------> -4 -8 0
3 9 0 ------> 5 9 0
-3 -9 0 ------> -5 -9 0
4 10 0 ------> 8 10 0
-4 -10 0 ------> -8 -10 0
5 11 0 ------> 9 11 0
-5 -11 0 ------> -9 -11 0
6 12 0 ------> 10 12 0
-6 -12 0 ------> -10 -12 0
7 13 0 ------> 11 13 0
-7 -13 0 ------> -11 -13 0
8 2 0 ------> 8 4 0
-8 -2 0 ------> -8 -4 0
9 3 0 ------> 9 5 0
-9 -3 0 ------> -9 -5 0
10 4 0 ------> 10 8 0
-10 -4 0 ------> -10 -8 0
11 5 0 ------> 11 9 0
-11 -5 0 ------> -11 -9 0
12 6 0 ------> 12 10 0
-12 -6 0 ------> -12 -10 0
13 7 0 ------> 13 11 0
-13 -7 0 ------> -13 -11 0
-1 0 ------> -1 0
{'b': {'b(1)': 2, 'b(2)': 3}, 'a': {'a(1)': 4, 'a(2)': 5}, 'd': {'d(1)': 6, 'd(2)': 7}, 'c': {'c(1,1)': 8, 'c(2,1)': 9, 'c(1,2)': 10, 'c(2,2)': 11}}